NAME : gr202.23301.tour
COMMENT : Length = 23301
COMMENT : Found by LKH [Keld Helsgaun] Sat May 25 06:41:07 2013
TYPE : TOUR
DIMENSION : 41
TOUR_SECTION
1
2
8
10
12
19
23
24
146
152
197
200
202
194
182
180
178
166
164
125
120
119
95
93
87
86
83
80
79
78
77
76
75
74
68
67
64
71
54
51
16
-1
EOF
